; chc-comp19-benchmarks/./lra-ts/chc-lra-ts-0135_000.smt2
(set-logic HORN)

(declare-fun |invariant| ( Real Real Real Real Real Real Real Real Real Real Real Real Real Real Real Real Real Real Real Real Real Real Real Real Real Real Real Real Real Real Real Real Real Real Real Real Real Real Real Real Real Real Real Real Real Real Real Real Real Real Real Real Real Real Real Real Real Real Real Real Bool Bool Bool Bool Bool Bool Bool Bool Bool Bool Bool Real Real Real Real Real Real Real Real ) Bool)

(assert
  (forall ( (A Real) (B Real) (C Real) (D Real) (E Real) (F Real) (G Real) (H Real) (I Real) (J Real) (K Real) (L Real) (M Real) (N Real) (O Real) (P Real) (Q Real) (R Real) (S Real) (T Real) (U Real) (V Real) (W Real) (X Real) (Y Real) (Z Real) (A1 Real) (B1 Real) (C1 Real) (D1 Real) (E1 Real) (F1 Real) (G1 Real) (H1 Real) (I1 Real) (J1 Real) (K1 Real) (L1 Real) (M1 Real) (N1 Real) (O1 Real) (P1 Real) (Q1 Real) (R1 Real) (S1 Real) (T1 Real) (U1 Real) (V1 Real) (W1 Real) (X1 Real) (Y1 Real) (Z1 Real) (A2 Real) (B2 Real) (C2 Real) (D2 Real) (E2 Real) (F2 Real) (G2 Real) (H2 Real) (I2 Real) (J2 Real) (K2 Real) (L2 Bool) (M2 Bool) (N2 Bool) (O2 Bool) (P2 Bool) (Q2 Bool) (R2 Bool) (S2 Bool) (T2 Bool) (U2 Bool) (V2 Bool) (W2 Real) (X2 Real) (Y2 Real) (Z2 Real) (A3 Real) ) 
    (=>
      (and
        (and (= I2 0.0)
     (= H2 0.0)
     (= G2 0.0)
     (= F2 0.0)
     (= E2 0.0)
     (= D2 0.0)
     (= C2 0.0)
     (= B2 0.0)
     (= A2 0.0)
     (= Z1 0.0)
     (= Y1 0.0)
     (= X1 0.0)
     (= W1 0.0)
     (= V1 0.0)
     (= U1 0.0)
     (= T1 0.0)
     (= S1 0.0)
     (= R1 0.0)
     (= Q1 0.0)
     (= P1 0.0)
     (= O1 0.0)
     (= N1 0.0)
     (= M1 0.0)
     (= L1 0.0)
     (= K1 0.0)
     (= J1 0.0)
     (= I1 0.0)
     (= H1 0.0)
     (= G1 0.0)
     (= F1 0.0)
     (= E1 0.0)
     (= D1 0.0)
     (= C1 0.0)
     (= B1 0.0)
     (= A1 0.0)
     (= Z 0.0)
     (= Y 0.0)
     (= X 0.0)
     (= W 0.0)
     (= V 0.0)
     (= U 0.0)
     (= T 0.0)
     (= S 0.0)
     (= R 0.0)
     (= Q 0.0)
     (= P 0.0)
     (= O 0.0)
     (= N 0.0)
     (= M 0.0)
     (= L 0.0)
     (= K 0.0)
     (= J 0.0)
     (= I 0.0)
     (= H 0.0)
     (= G 0.0)
     (= F 0.0)
     (= E 0.0)
     (= D 0.0)
     (= C 0.0)
     (= B 0.0)
     (= A 0.0)
     (or (and (not Q2) R2 S2 T2 U2 V2)
         (and Q2 (not R2) S2 T2 U2 V2)
         (and Q2 R2 (not S2) T2 U2 V2)
         (and Q2 R2 S2 (not T2) U2 V2)
         (and Q2 R2 S2 T2 (not U2) V2)
         (and Q2 R2 S2 T2 U2 (not V2)))
     (or (= J2 1.0) (= J2 2.0) (= J2 3.0) (= J2 4.0) (= J2 5.0))
     (= P2 true)
     (= O2 true)
     (= N2 true)
     (= M2 true)
     (= L2 true)
     (not (= K2 0.0)))
      )
      (invariant B
           C
           D
           E
           F
           G
           H
           I
           J
           K
           L
           M
           N
           O
           P
           Q
           R
           S
           T
           U
           V
           W
           X
           Y
           Z
           A1
           B1
           C1
           D1
           E1
           F1
           G1
           H1
           I1
           J1
           K1
           L1
           M1
           N1
           O1
           P1
           Q1
           R1
           S1
           T1
           U1
           V1
           W1
           X1
           Y1
           Z1
           A2
           B2
           C2
           D2
           E2
           F2
           G2
           H2
           I2
           L2
           M2
           N2
           O2
           P2
           Q2
           R2
           S2
           T2
           U2
           V2
           W2
           X2
           Y2
           Z2
           A3
           A
           J2
           K2)
    )
  )
)
(assert
  (forall ( (A Real) (B Real) (C Real) (D Real) (E Real) (F Real) (G Real) (H Real) (I Real) (J Real) (K Real) (L Real) (M Real) (N Real) (O Real) (P Real) (Q Real) (R Real) (S Real) (T Real) (U Real) (V Real) (W Real) (X Real) (Y Real) (Z Real) (A1 Real) (B1 Real) (C1 Real) (D1 Real) (E1 Real) (F1 Real) (G1 Real) (H1 Real) (I1 Real) (J1 Real) (K1 Real) (L1 Real) (M1 Real) (N1 Real) (O1 Real) (P1 Real) (Q1 Real) (R1 Real) (S1 Real) (T1 Real) (U1 Real) (V1 Real) (W1 Real) (X1 Real) (Y1 Real) (Z1 Real) (A2 Real) (B2 Real) (C2 Real) (D2 Real) (E2 Real) (F2 Real) (G2 Real) (H2 Real) (I2 Bool) (J2 Bool) (K2 Bool) (L2 Bool) (M2 Bool) (N2 Bool) (O2 Bool) (P2 Bool) (Q2 Bool) (R2 Bool) (S2 Bool) (T2 Real) (U2 Real) (V2 Real) (W2 Real) (X2 Real) (Y2 Real) (Z2 Real) (A3 Real) (B3 Real) (C3 Real) (D3 Real) (E3 Real) (F3 Real) (G3 Real) (H3 Real) (I3 Real) (J3 Real) (K3 Real) (L3 Real) (M3 Real) (N3 Real) (O3 Real) (P3 Real) (Q3 Real) (R3 Real) (S3 Real) (T3 Real) (U3 Real) (V3 Real) (W3 Real) (X3 Real) (Y3 Real) (Z3 Real) (A4 Real) (B4 Real) (C4 Real) (D4 Real) (E4 Real) (F4 Real) (G4 Real) (H4 Real) (I4 Real) (J4 Real) (K4 Real) (L4 Real) (M4 Real) (N4 Real) (O4 Real) (P4 Real) (Q4 Real) (R4 Real) (S4 Real) (T4 Real) (U4 Real) (V4 Real) (W4 Real) (X4 Real) (Y4 Real) (Z4 Real) (A5 Real) (B5 Real) (C5 Real) (D5 Real) (E5 Real) (F5 Real) (G5 Real) (H5 Real) (I5 Real) (J5 Real) (K5 Real) (L5 Real) (M5 Bool) (N5 Bool) (O5 Bool) (P5 Bool) (Q5 Bool) (R5 Bool) (S5 Bool) (T5 Bool) (U5 Bool) (V5 Bool) (W5 Bool) (X5 Real) (Y5 Real) (Z5 Real) (A6 Real) (B6 Real) ) 
    (=>
      (and
        (invariant A
           B
           C
           D
           E
           F
           G
           H
           I
           J
           K
           L
           M
           N
           O
           P
           Q
           R
           S
           T
           U
           V
           W
           X
           Y
           Z
           A1
           B1
           C1
           D1
           E1
           F1
           G1
           H1
           I1
           J1
           K1
           L1
           M1
           N1
           O1
           P1
           Q1
           R1
           S1
           T1
           U1
           V1
           W1
           X1
           Y1
           Z1
           A2
           B2
           C2
           D2
           E2
           F2
           G2
           H2
           I2
           J2
           K2
           L2
           M2
           N2
           O2
           P2
           Q2
           R2
           S2
           T2
           U2
           V2
           W2
           X2
           Y2
           Z2
           A3)
        (let ((a!1 (and (or (not I2)
                    (and (= D3 A3)
                         (= E3 A3)
                         (= F3 A3)
                         (= G3 A3)
                         (= H3 A3)
                         (= I3 A3))
                    (not (= 1.0 Z2)))
                (or (not I2)
                    (and (= D3 0.0)
                         (= E3 0.0)
                         (= F3 0.0)
                         (= G3 0.0)
                         (= H3 0.0)
                         (= I3 0.0))
                    (= 1.0 Z2))
                (or (not J2)
                    (and (= J3 A3)
                         (= K3 A3)
                         (= L3 A3)
                         (= M3 A3)
                         (= N3 A3)
                         (= O3 A3))
                    (not (= 2.0 Z2)))
                (or (not J2)
                    (and (= J3 0.0)
                         (= K3 0.0)
                         (= L3 0.0)
                         (= M3 0.0)
                         (= N3 0.0)
                         (= O3 0.0))
                    (= 2.0 Z2))
                (or (not K2)
                    (and (= P3 A3)
                         (= Q3 A3)
                         (= R3 A3)
                         (= S3 A3)
                         (= T3 A3)
                         (= U3 A3))
                    (not (= 3.0 Z2)))
                (or (not K2)
                    (and (= P3 0.0)
                         (= Q3 0.0)
                         (= R3 0.0)
                         (= S3 0.0)
                         (= T3 0.0)
                         (= U3 0.0))
                    (= 3.0 Z2))
                (or (not L2)
                    (and (= V3 A3)
                         (= W3 A3)
                         (= X3 A3)
                         (= Y3 A3)
                         (= Z3 A3)
                         (= A4 A3))
                    (not (= 4.0 Z2)))
                (or (not L2)
                    (and (= V3 0.0)
                         (= W3 0.0)
                         (= X3 0.0)
                         (= Y3 0.0)
                         (= Z3 0.0)
                         (= A4 0.0))
                    (= 4.0 Z2))
                (or (not M2)
                    (and (= B4 A3)
                         (= C4 A3)
                         (= D4 A3)
                         (= E4 A3)
                         (= F4 A3)
                         (= G4 A3))
                    (not (= 5.0 Z2)))
                (or (not M2)
                    (and (= B4 0.0)
                         (= C4 0.0)
                         (= D4 0.0)
                         (= E4 0.0)
                         (= F4 0.0)
                         (= G4 0.0))
                    (= 5.0 Z2))
                (= H4 1.0)
                (= I4 E1)
                (= J4 F1)
                (= K4 G1)
                (= L4 H1)
                (= M4 I1)
                (= N4 J1)
                (= O4 K1)
                (= P4 L1)
                (= Q4 M1)
                (= R4 N1)
                (= S4 O1)
                (= T4 P1)
                (= U4 Q1)
                (= V4 R1)
                (= W4 S1)
                (= X4 T1)
                (= Y4 U1)
                (= Z4 V1)
                (= A5 W1)
                (= B5 X1)
                (= C5 Y1)
                (= D5 Z1)
                (= E5 A2)
                (= F5 B2)
                (= G5 C2)
                (= H5 D2)
                (= I5 E2)
                (= J5 F2)
                (= K5 G2)
                (= L5 H2)
                (= X5 T2)
                (= Y5 U2)
                (= Z5 V2)
                (= A6 W2)
                (= B6 X2)
                (= Y2 0.0)
                (= M5 I2)
                (= N5 J2)
                (= O5 K2)
                (= P5 L2)
                (= Q5 M2)
                (= R5 N2)
                (= S5 O2)
                (= T5 P2)
                (= U5 Q2)
                (= V5 R2)
                (= W5 S2)))
      (a!2 (ite (= H1 J1)
                (+ 1 (ite (= I1 J1) 2 0))
                (+ (- 1) (ite (= I1 J1) 2 0))))
      (a!18 (ite (= N1 P1)
                 (+ 1 (ite (= O1 P1) 2 0))
                 (+ (- 1) (ite (= O1 P1) 2 0))))
      (a!34 (ite (= T1 V1)
                 (+ 1 (ite (= U1 V1) 2 0))
                 (+ (- 1) (ite (= U1 V1) 2 0))))
      (a!50 (ite (= Z1 B2)
                 (+ 1 (ite (= A2 B2) 2 0))
                 (+ (- 1) (ite (= A2 B2) 2 0))))
      (a!66 (ite (= F2 H2)
                 (+ 1 (ite (= G2 H2) 2 0))
                 (+ (- 1) (ite (= G2 H2) 2 0))))
      (a!82 (ite (= Z2 4.0) S (ite (= Z2 3.0) M (ite (= Z2 2.0) G A))))
      (a!88 (ite (= Z2 4.0) T (ite (= Z2 3.0) N (ite (= Z2 2.0) H B))))
      (a!94 (ite (= Z2 4.0) U (ite (= Z2 3.0) O (ite (= Z2 2.0) I C))))
      (a!100 (ite (= Z2 4.0) V (ite (= Z2 3.0) P (ite (= Z2 2.0) J D))))
      (a!106 (ite (= Z2 4.0) W (ite (= Z2 3.0) Q (ite (= Z2 2.0) K E))))
      (a!112 (ite (= Z2 4.0) X (ite (= Z2 3.0) R (ite (= Z2 2.0) L F)))))
(let ((a!3 (ite (= G1 (ite (= I1 J1) J1 H1))
                (+ 1 (ite (= I1 J1) a!2 1))
                (+ (- 1) (ite (= I1 J1) a!2 1))))
      (a!5 (ite (= (ite (= I1 J1) a!2 1) 0) G1 (ite (= I1 J1) J1 H1)))
      (a!19 (ite (= M1 (ite (= O1 P1) P1 N1))
                 (+ 1 (ite (= O1 P1) a!18 1))
                 (+ (- 1) (ite (= O1 P1) a!18 1))))
      (a!21 (ite (= (ite (= O1 P1) a!18 1) 0) M1 (ite (= O1 P1) P1 N1)))
      (a!35 (ite (= S1 (ite (= U1 V1) V1 T1))
                 (+ 1 (ite (= U1 V1) a!34 1))
                 (+ (- 1) (ite (= U1 V1) a!34 1))))
      (a!37 (ite (= (ite (= U1 V1) a!34 1) 0) S1 (ite (= U1 V1) V1 T1)))
      (a!51 (ite (= Y1 (ite (= A2 B2) B2 Z1))
                 (+ 1 (ite (= A2 B2) a!50 1))
                 (+ (- 1) (ite (= A2 B2) a!50 1))))
      (a!53 (ite (= (ite (= A2 B2) a!50 1) 0) Y1 (ite (= A2 B2) B2 Z1)))
      (a!67 (ite (= E2 (ite (= G2 H2) H2 F2))
                 (+ 1 (ite (= G2 H2) a!66 1))
                 (+ (- 1) (ite (= G2 H2) a!66 1))))
      (a!69 (ite (= (ite (= G2 H2) a!66 1) 0) E2 (ite (= G2 H2) H2 F2)))
      (a!83 (or (not N2) (= I4 (ite (= Z2 5.0) Y a!82))))
      (a!84 (or (not N2) (= O4 (ite (= Z2 5.0) Y a!82))))
      (a!85 (or (not N2) (= U4 (ite (= Z2 5.0) Y a!82))))
      (a!86 (or (not N2) (= A5 (ite (= Z2 5.0) Y a!82))))
      (a!87 (or (not N2) (= G5 (ite (= Z2 5.0) Y a!82))))
      (a!89 (or (not O2) (= J4 (ite (= Z2 5.0) Z a!88))))
      (a!90 (or (not O2) (= P4 (ite (= Z2 5.0) Z a!88))))
      (a!91 (or (not O2) (= V4 (ite (= Z2 5.0) Z a!88))))
      (a!92 (or (not O2) (= B5 (ite (= Z2 5.0) Z a!88))))
      (a!93 (or (not O2) (= H5 (ite (= Z2 5.0) Z a!88))))
      (a!95 (or (not P2) (= K4 (ite (= Z2 5.0) A1 a!94))))
      (a!96 (or (not P2) (= Q4 (ite (= Z2 5.0) A1 a!94))))
      (a!97 (or (not P2) (= W4 (ite (= Z2 5.0) A1 a!94))))
      (a!98 (or (not P2) (= C5 (ite (= Z2 5.0) A1 a!94))))
      (a!99 (or (not P2) (= I5 (ite (= Z2 5.0) A1 a!94))))
      (a!101 (or (not Q2) (= L4 (ite (= Z2 5.0) B1 a!100))))
      (a!102 (or (not Q2) (= R4 (ite (= Z2 5.0) B1 a!100))))
      (a!103 (or (not Q2) (= X4 (ite (= Z2 5.0) B1 a!100))))
      (a!104 (or (not Q2) (= D5 (ite (= Z2 5.0) B1 a!100))))
      (a!105 (or (not Q2) (= J5 (ite (= Z2 5.0) B1 a!100))))
      (a!107 (or (not R2) (= M4 (ite (= Z2 5.0) C1 a!106))))
      (a!108 (or (not R2) (= S4 (ite (= Z2 5.0) C1 a!106))))
      (a!109 (or (not R2) (= Y4 (ite (= Z2 5.0) C1 a!106))))
      (a!110 (or (not R2) (= E5 (ite (= Z2 5.0) C1 a!106))))
      (a!111 (or (not R2) (= K5 (ite (= Z2 5.0) C1 a!106))))
      (a!113 (or (not S2) (= N4 (ite (= Z2 5.0) D1 a!112))))
      (a!114 (or (not S2) (= T4 (ite (= Z2 5.0) D1 a!112))))
      (a!115 (or (not S2) (= Z4 (ite (= Z2 5.0) D1 a!112))))
      (a!116 (or (not S2) (= F5 (ite (= Z2 5.0) D1 a!112))))
      (a!117 (or (not S2) (= L5 (ite (= Z2 5.0) D1 a!112)))))
(let ((a!4 (ite (= (ite (= I1 J1) a!2 1) 0) 1 a!3))
      (a!20 (ite (= (ite (= O1 P1) a!18 1) 0) 1 a!19))
      (a!36 (ite (= (ite (= U1 V1) a!34 1) 0) 1 a!35))
      (a!52 (ite (= (ite (= A2 B2) a!50 1) 0) 1 a!51))
      (a!68 (ite (= (ite (= G2 H2) a!66 1) 0) 1 a!67)))
(let ((a!6 (= (ite (= a!4 0) 1 (ite (= F1 a!5) (+ 1 a!4) (+ (- 1) a!4))) 0))
      (a!22 (= (ite (= a!20 0) 1 (ite (= L1 a!21) (+ 1 a!20) (+ (- 1) a!20))) 0))
      (a!38 (= (ite (= a!36 0) 1 (ite (= R1 a!37) (+ 1 a!36) (+ (- 1) a!36))) 0))
      (a!54 (= (ite (= a!52 0) 1 (ite (= X1 a!53) (+ 1 a!52) (+ (- 1) a!52))) 0))
      (a!70 (= (ite (= a!68 0) 1 (ite (= D2 a!69) (+ 1 a!68) (+ (- 1) a!68))) 0)))
(let ((a!7 (= E1 (ite a!6 E1 (ite (= a!4 0) F1 a!5))))
      (a!8 (= F1 (ite a!6 E1 (ite (= a!4 0) F1 a!5))))
      (a!9 (= G1 (ite a!6 E1 (ite (= a!4 0) F1 a!5))))
      (a!10 (= H1 (ite a!6 E1 (ite (= a!4 0) F1 a!5))))
      (a!11 (= I1 (ite a!6 E1 (ite (= a!4 0) F1 a!5))))
      (a!12 (= J1 (ite a!6 E1 (ite (= a!4 0) F1 a!5))))
      (a!23 (= K1 (ite a!22 K1 (ite (= a!20 0) L1 a!21))))
      (a!24 (= L1 (ite a!22 K1 (ite (= a!20 0) L1 a!21))))
      (a!25 (= M1 (ite a!22 K1 (ite (= a!20 0) L1 a!21))))
      (a!26 (= N1 (ite a!22 K1 (ite (= a!20 0) L1 a!21))))
      (a!27 (= O1 (ite a!22 K1 (ite (= a!20 0) L1 a!21))))
      (a!28 (= P1 (ite a!22 K1 (ite (= a!20 0) L1 a!21))))
      (a!39 (= Q1 (ite a!38 Q1 (ite (= a!36 0) R1 a!37))))
      (a!40 (= R1 (ite a!38 Q1 (ite (= a!36 0) R1 a!37))))
      (a!41 (= S1 (ite a!38 Q1 (ite (= a!36 0) R1 a!37))))
      (a!42 (= T1 (ite a!38 Q1 (ite (= a!36 0) R1 a!37))))
      (a!43 (= U1 (ite a!38 Q1 (ite (= a!36 0) R1 a!37))))
      (a!44 (= V1 (ite a!38 Q1 (ite (= a!36 0) R1 a!37))))
      (a!55 (= W1 (ite a!54 W1 (ite (= a!52 0) X1 a!53))))
      (a!56 (= X1 (ite a!54 W1 (ite (= a!52 0) X1 a!53))))
      (a!57 (= Y1 (ite a!54 W1 (ite (= a!52 0) X1 a!53))))
      (a!58 (= Z1 (ite a!54 W1 (ite (= a!52 0) X1 a!53))))
      (a!59 (= A2 (ite a!54 W1 (ite (= a!52 0) X1 a!53))))
      (a!60 (= B2 (ite a!54 W1 (ite (= a!52 0) X1 a!53))))
      (a!71 (= C2 (ite a!70 C2 (ite (= a!68 0) D2 a!69))))
      (a!72 (= D2 (ite a!70 C2 (ite (= a!68 0) D2 a!69))))
      (a!73 (= E2 (ite a!70 C2 (ite (= a!68 0) D2 a!69))))
      (a!74 (= F2 (ite a!70 C2 (ite (= a!68 0) D2 a!69))))
      (a!75 (= G2 (ite a!70 C2 (ite (= a!68 0) D2 a!69))))
      (a!76 (= H2 (ite a!70 C2 (ite (= a!68 0) D2 a!69)))))
(let ((a!13 (ite a!11 (+ (- 1) (ite a!12 3 4)) (ite a!12 3 4)))
      (a!29 (ite a!27 (+ (- 1) (ite a!28 3 4)) (ite a!28 3 4)))
      (a!45 (ite a!43 (+ (- 1) (ite a!44 3 4)) (ite a!44 3 4)))
      (a!61 (ite a!59 (+ (- 1) (ite a!60 3 4)) (ite a!60 3 4)))
      (a!77 (ite a!75 (+ (- 1) (ite a!76 3 4)) (ite a!76 3 4))))
(let ((a!14 (ite a!9
                 (+ (- 1) (ite a!10 (+ (- 1) a!13) a!13))
                 (ite a!10 (+ (- 1) a!13) a!13)))
      (a!30 (ite a!25
                 (+ (- 1) (ite a!26 (+ (- 1) a!29) a!29))
                 (ite a!26 (+ (- 1) a!29) a!29)))
      (a!46 (ite a!41
                 (+ (- 1) (ite a!42 (+ (- 1) a!45) a!45))
                 (ite a!42 (+ (- 1) a!45) a!45)))
      (a!62 (ite a!57
                 (+ (- 1) (ite a!58 (+ (- 1) a!61) a!61))
                 (ite a!58 (+ (- 1) a!61) a!61)))
      (a!78 (ite a!73
                 (+ (- 1) (ite a!74 (+ (- 1) a!77) a!77))
                 (ite a!74 (+ (- 1) a!77) a!77))))
(let ((a!15 (ite a!7
                 (+ (- 1) (ite a!8 (+ (- 1) a!14) a!14))
                 (ite a!8 (+ (- 1) a!14) a!14)))
      (a!31 (ite a!23
                 (+ (- 1) (ite a!24 (+ (- 1) a!30) a!30))
                 (ite a!24 (+ (- 1) a!30) a!30)))
      (a!47 (ite a!39
                 (+ (- 1) (ite a!40 (+ (- 1) a!46) a!46))
                 (ite a!40 (+ (- 1) a!46) a!46)))
      (a!63 (ite a!55
                 (+ (- 1) (ite a!56 (+ (- 1) a!62) a!62))
                 (ite a!56 (+ (- 1) a!62) a!62)))
      (a!79 (ite a!71
                 (+ (- 1) (ite a!72 (+ (- 1) a!78) a!78))
                 (ite a!72 (+ (- 1) a!78) a!78))))
(let ((a!16 (or (= a!15 0)
                (= (ite a!8 (+ (- 1) a!14) a!14) 0)
                (= a!14 0)
                (= (ite a!10 (+ (- 1) a!13) a!13) 0)))
      (a!32 (or (= a!31 0)
                (= (ite a!24 (+ (- 1) a!30) a!30) 0)
                (= a!30 0)
                (= (ite a!26 (+ (- 1) a!29) a!29) 0)))
      (a!48 (or (= a!47 0)
                (= (ite a!40 (+ (- 1) a!46) a!46) 0)
                (= a!46 0)
                (= (ite a!42 (+ (- 1) a!45) a!45) 0)))
      (a!64 (or (= a!63 0)
                (= (ite a!56 (+ (- 1) a!62) a!62) 0)
                (= a!62 0)
                (= (ite a!58 (+ (- 1) a!61) a!61) 0)))
      (a!80 (or (= a!79 0)
                (= (ite a!72 (+ (- 1) a!78) a!78) 0)
                (= a!78 0)
                (= (ite a!74 (+ (- 1) a!77) a!77) 0))))
(let ((a!17 (ite a!16 (ite a!6 E1 (ite (= a!4 0) F1 a!5)) 0.0))
      (a!33 (ite a!32 (ite a!22 K1 (ite (= a!20 0) L1 a!21)) 0.0))
      (a!49 (ite a!48 (ite a!38 Q1 (ite (= a!36 0) R1 a!37)) 0.0))
      (a!65 (ite a!64 (ite a!54 W1 (ite (= a!52 0) X1 a!53)) 0.0))
      (a!81 (ite a!80 (ite a!70 C2 (ite (= a!68 0) D2 a!69)) 0.0)))
(let ((a!118 (or a!1
                 (and (or (not I2) (= X5 a!17))
                      (or (not J2) (= Y5 a!33))
                      (or (not K2) (= Z5 a!49))
                      (or (not L2) (= A6 a!65))
                      (or (not M2) (= B6 a!81))
                      (= D3 A)
                      (= E3 B)
                      (= F3 C)
                      (= G3 D)
                      (= H3 E)
                      (= I3 F)
                      (= J3 G)
                      (= K3 H)
                      (= L3 I)
                      (= M3 J)
                      (= N3 K)
                      (= O3 L)
                      (= P3 M)
                      (= Q3 N)
                      (= R3 O)
                      (= S3 P)
                      (= T3 Q)
                      (= U3 R)
                      (= V3 S)
                      (= W3 T)
                      (= X3 U)
                      (= Y3 V)
                      (= Z3 W)
                      (= A4 X)
                      (= B4 Y)
                      (= C4 Z)
                      (= D4 A1)
                      (= E4 B1)
                      (= F4 C1)
                      (= G4 D1)
                      (= H4 3.0)
                      (= I4 E1)
                      (= J4 F1)
                      (= K4 G1)
                      (= L4 H1)
                      (= M4 I1)
                      (= N4 J1)
                      (= O4 K1)
                      (= P4 L1)
                      (= Q4 M1)
                      (= R4 N1)
                      (= S4 O1)
                      (= T4 P1)
                      (= U4 Q1)
                      (= V4 R1)
                      (= W4 S1)
                      (= X4 T1)
                      (= Y4 U1)
                      (= Z4 V1)
                      (= A5 W1)
                      (= B5 X1)
                      (= C5 Y1)
                      (= D5 Z1)
                      (= E5 A2)
                      (= F5 B2)
                      (= G5 C2)
                      (= H5 D2)
                      (= I5 E2)
                      (= J5 F2)
                      (= K5 G2)
                      (= L5 H2)
                      (= Y2 2.0)
                      (= M5 I2)
                      (= N5 J2)
                      (= O5 K2)
                      (= P5 L2)
                      (= Q5 M2)
                      (= R5 N2)
                      (= S5 O2)
                      (= T5 P2)
                      (= U5 Q2)
                      (= V5 R2)
                      (= W5 S2))
                 (and a!83
                      a!84
                      a!85
                      a!86
                      a!87
                      a!89
                      a!90
                      a!91
                      a!92
                      a!93
                      a!95
                      a!96
                      a!97
                      a!98
                      a!99
                      a!101
                      a!102
                      a!103
                      a!104
                      a!105
                      a!107
                      a!108
                      a!109
                      a!110
                      a!111
                      a!113
                      a!114
                      a!115
                      a!116
                      a!117
                      (= D3 A)
                      (= E3 B)
                      (= F3 C)
                      (= G3 D)
                      (= H3 E)
                      (= I3 F)
                      (= J3 G)
                      (= K3 H)
                      (= L3 I)
                      (= M3 J)
                      (= N3 K)
                      (= O3 L)
                      (= P3 M)
                      (= Q3 N)
                      (= R3 O)
                      (= S3 P)
                      (= T3 Q)
                      (= U3 R)
                      (= V3 S)
                      (= W3 T)
                      (= X3 U)
                      (= Y3 V)
                      (= Z3 W)
                      (= A4 X)
                      (= B4 Y)
                      (= C4 Z)
                      (= D4 A1)
                      (= E4 B1)
                      (= F4 C1)
                      (= G4 D1)
                      (= H4 2.0)
                      (= X5 T2)
                      (= Y5 U2)
                      (= Z5 V2)
                      (= A6 W2)
                      (= B6 X2)
                      (= Y2 1.0)
                      (= M5 I2)
                      (= N5 J2)
                      (= O5 K2)
                      (= P5 L2)
                      (= Q5 M2)
                      (= R5 N2)
                      (= S5 O2)
                      (= T5 P2)
                      (= U5 Q2)
                      (= V5 R2)
                      (= W5 S2))
                 (and (= D3 A)
                      (= E3 B)
                      (= F3 C)
                      (= G3 D)
                      (= H3 E)
                      (= I3 F)
                      (= J3 G)
                      (= K3 H)
                      (= L3 I)
                      (= M3 J)
                      (= N3 K)
                      (= O3 L)
                      (= P3 M)
                      (= Q3 N)
                      (= R3 O)
                      (= S3 P)
                      (= T3 Q)
                      (= U3 R)
                      (= V3 S)
                      (= W3 T)
                      (= X3 U)
                      (= Y3 V)
                      (= Z3 W)
                      (= A4 X)
                      (= B4 Y)
                      (= C4 Z)
                      (= D4 A1)
                      (= E4 B1)
                      (= F4 C1)
                      (= G4 D1)
                      (= H4 Y2)
                      (= I4 E1)
                      (= J4 F1)
                      (= K4 G1)
                      (= L4 H1)
                      (= M4 I1)
                      (= N4 J1)
                      (= O4 K1)
                      (= P4 L1)
                      (= Q4 M1)
                      (= R4 N1)
                      (= S4 O1)
                      (= T4 P1)
                      (= U4 Q1)
                      (= V4 R1)
                      (= W4 S1)
                      (= X4 T1)
                      (= Y4 U1)
                      (= Z4 V1)
                      (= A5 W1)
                      (= B5 X1)
                      (= C5 Y1)
                      (= D5 Z1)
                      (= E5 A2)
                      (= F5 B2)
                      (= G5 C2)
                      (= H5 D2)
                      (= I5 E2)
                      (= J5 F2)
                      (= K5 G2)
                      (= L5 H2)
                      (= X5 T2)
                      (= Y5 U2)
                      (= Z5 V2)
                      (= A6 W2)
                      (= B6 X2)
                      (= Y2 3.0)
                      (= M5 I2)
                      (= N5 J2)
                      (= O5 K2)
                      (= P5 L2)
                      (= Q5 M2)
                      (= R5 N2)
                      (= S5 O2)
                      (= T5 P2)
                      (= U5 Q2)
                      (= V5 R2)
                      (= W5 S2)))))
  (and (= B3 Z2) a!118 (= C3 A3)))))))))))))
      )
      (invariant D3
           E3
           F3
           G3
           H3
           I3
           J3
           K3
           L3
           M3
           N3
           O3
           P3
           Q3
           R3
           S3
           T3
           U3
           V3
           W3
           X3
           Y3
           Z3
           A4
           B4
           C4
           D4
           E4
           F4
           G4
           I4
           J4
           K4
           L4
           M4
           N4
           O4
           P4
           Q4
           R4
           S4
           T4
           U4
           V4
           W4
           X4
           Y4
           Z4
           A5
           B5
           C5
           D5
           E5
           F5
           G5
           H5
           I5
           J5
           K5
           L5
           M5
           N5
           O5
           P5
           Q5
           R5
           S5
           T5
           U5
           V5
           W5
           X5
           Y5
           Z5
           A6
           B6
           H4
           B3
           C3)
    )
  )
)
(assert
  (forall ( (A Real) (B Real) (C Real) (D Real) (E Real) (F Real) (G Real) (H Real) (I Real) (J Real) (K Real) (L Real) (M Real) (N Real) (O Real) (P Real) (Q Real) (R Real) (S Real) (T Real) (U Real) (V Real) (W Real) (X Real) (Y Real) (Z Real) (A1 Real) (B1 Real) (C1 Real) (D1 Real) (E1 Real) (F1 Real) (G1 Real) (H1 Real) (I1 Real) (J1 Real) (K1 Real) (L1 Real) (M1 Real) (N1 Real) (O1 Real) (P1 Real) (Q1 Real) (R1 Real) (S1 Real) (T1 Real) (U1 Real) (V1 Real) (W1 Real) (X1 Real) (Y1 Real) (Z1 Real) (A2 Real) (B2 Real) (C2 Real) (D2 Real) (E2 Real) (F2 Real) (G2 Real) (H2 Real) (I2 Bool) (J2 Bool) (K2 Bool) (L2 Bool) (M2 Bool) (N2 Bool) (O2 Bool) (P2 Bool) (Q2 Bool) (R2 Bool) (S2 Bool) (T2 Real) (U2 Real) (V2 Real) (W2 Real) (X2 Real) (Y2 Real) (Z2 Real) (A3 Real) ) 
    (=>
      (and
        (invariant A
           B
           C
           D
           E
           F
           G
           H
           I
           J
           K
           L
           M
           N
           O
           P
           Q
           R
           S
           T
           U
           V
           W
           X
           Y
           Z
           A1
           B1
           C1
           D1
           E1
           F1
           G1
           H1
           I1
           J1
           K1
           L1
           M1
           N1
           O1
           P1
           Q1
           R1
           S1
           T1
           U1
           V1
           W1
           X1
           Y1
           Z1
           A2
           B2
           C2
           D2
           E2
           F2
           G2
           H2
           I2
           J2
           K2
           L2
           M2
           N2
           O2
           P2
           Q2
           R2
           S2
           T2
           U2
           V2
           W2
           X2
           Y2
           Z2
           A3)
        (let ((a!1 (or (and M2 (not (= W2 X2)))
               (and I2 (not (= W2 T2)))
               (and J2 (not (= W2 U2)))
               (and K2 (not (= W2 V2)))))
      (a!2 (or (and L2 (not (= X2 W2)))
               (and I2 (not (= X2 T2)))
               (and J2 (not (= X2 U2)))
               (and K2 (not (= X2 V2)))))
      (a!3 (or (and L2 (not (= T2 W2)))
               (and M2 (not (= T2 X2)))
               (and J2 (not (= T2 U2)))
               (and K2 (not (= T2 V2)))))
      (a!4 (or (and L2 (not (= U2 W2)))
               (and M2 (not (= U2 X2)))
               (and I2 (not (= U2 T2)))
               (and K2 (not (= U2 V2)))))
      (a!5 (or (and L2 (not (= V2 W2)))
               (and M2 (not (= V2 X2)))
               (and I2 (not (= V2 T2)))
               (and J2 (not (= V2 U2))))))
  (and (or (and L2 a!1) (and M2 a!2) (and I2 a!3) (and J2 a!4) (and K2 a!5))
       (<= 3.0 Y2)))
      )
      false
    )
  )
)

(check-sat)
(exit)
